#######################



#######################
Set parameter TimeLimit to value 500
Set parameter SoftMemLimit to value 125
Set parameter LogFile to value 1202-MIPFocus0-Presolve2-TimeLimit500-k16x240-2.log
Set parameter Presolve to value 2
Set parameter Seed to value 12
Using license file /opt/gurobi/gurobi.lic

Gurobi Optimizer version 12.0.2 build v12.0.2rc0 (linux64 - "Ubuntu 22.04.4 LTS")
Copyright (c) 2025, Gurobi Optimization, LLC

Read MPS format model from file /miplib2010/k16x240.mps.bz2
Reading time = 0.00 seconds
k16x240: 256 rows, 480 columns, 960 nonzeros

Using Gurobi shared library /nfs/shared/static-builds/gurobi1202

CPU model: Intel(R) Xeon(R) E-2388G CPU @ 3.20GHz, instruction set [SSE2|AVX|AVX2|AVX512]
Thread count: 8 physical cores, 16 logical processors, using up to 16 threads

Non-default parameters:
TimeLimit  500
SoftMemLimit  125
Presolve  2
Seed  12

Optimize a model with 256 rows, 480 columns and 960 nonzeros
Model fingerprint: 0x4e80885f
Variable types: 240 continuous, 240 integer (240 binary)
Coefficient statistics:
  Matrix range     [1e+00, 1e+03]
  Objective range  [1e+00, 1e+03]
  Bounds range     [1e+00, 1e+03]
  RHS range        [4e+00, 4e+02]
Found heuristic solution: objective 19617.000000
Presolve time: 0.00s
Presolved: 256 rows, 480 columns, 960 nonzeros
Variable types: 240 continuous, 240 integer (240 binary)
Root relaxation presolve removed 241 rows and 240 columns
Root relaxation presolved: 15 rows, 240 columns, 450 nonzeros


Root relaxation: objective 2.769838e+03, 16 iterations, 0.00 seconds (0.00 work units)

    Nodes    |    Current Node    |     Objective Bounds      |     Work
 Expl Unexpl |  Obj  Depth IntInf | Incumbent    BestBd   Gap | It/Node Time

     0     0 2769.83800    0   14 19617.0000 2769.83800  85.9%     -    0s
H    0     0                    11359.000000 2769.83800  75.6%     -    0s
H    0     0                    11264.000000 2769.83800  75.4%     -    0s
H    0     0                    11261.000000 8084.69631  28.2%     -    0s
H    0     0                    11240.000000 8084.69631  28.1%     -    0s
H    0     0                    10989.000000 8084.69631  26.4%     -    0s
     0     0 8084.69631    0   26 10989.0000 8084.69631  26.4%     -    0s
H    0     0                    10988.000000 8103.69089  26.2%     -    0s
H    0     0                    10923.000000 8103.69089  25.8%     -    0s
H    0     0                    10919.000000 8103.69089  25.8%     -    0s
H    0     0                    10843.000000 8103.69089  25.3%     -    0s
     0     0 8528.16906    0   24 10843.0000 8528.16906  21.3%     -    0s
     0     0 8539.52379    0   32 10843.0000 8539.52379  21.2%     -    0s
     0     0 8548.03675    0   29 10843.0000 8548.03675  21.2%     -    0s
     0     0 8709.34417    0   28 10843.0000 8709.34417  19.7%     -    0s
     0     0 8789.94157    0   30 10843.0000 8789.94157  18.9%     -    0s
     0     0 8794.57393    0   35 10843.0000 8794.57393  18.9%     -    0s
H    0     0                    10779.000000 8860.28814  17.8%     -    0s
     0     0 8860.28814    0   28 10779.0000 8860.28814  17.8%     -    0s
     0     0 8875.11228    0   30 10779.0000 8875.11228  17.7%     -    0s
     0     0 8882.28844    0   32 10779.0000 8882.28844  17.6%     -    0s
     0     0 8999.68106    0   30 10779.0000 8999.68106  16.5%     -    0s
H    0     0                    10765.000000 9000.05906  16.4%     -    0s
H    0     0                    10745.000000 9000.05906  16.2%     -    0s
H    0     0                    10681.000000 9000.05906  15.7%     -    0s
     0     0 9038.92960    0   31 10681.0000 9038.92960  15.4%     -    0s
     0     0 9050.04274    0   35 10681.0000 9050.04274  15.3%     -    0s
     0     0 9056.82487    0   38 10681.0000 9056.82487  15.2%     -    0s
     0     0 9087.87053    0   39 10681.0000 9087.87053  14.9%     -    0s
     0     0 9090.17773    0   39 10681.0000 9090.17773  14.9%     -    0s
H    0     0                    10678.000000 9090.17773  14.9%     -    0s
     0     2 9090.17773    0   38 10678.0000 9090.17773  14.9%     -    0s
H  123   144                    10674.000000 9224.98021  13.6%  25.4    0s
 37025 14594     cutoff   28      10674.0000 9978.57962  6.52%  22.5    5s
 77137 21402 10321.2331   33   19 10674.0000 10153.2078  4.88%  24.3   10s
 117885 21521     cutoff   45      10674.0000 10283.1238  3.66%  25.2   15s
 157536 11205     cutoff   35      10674.0000 10436.7350  2.22%  24.7   20s

Cutting planes:
  Gomory: 1
  Lift-and-project: 15
  Cover: 92
  Implied bound: 22
  Dual implied bound: 21
  MIR: 184
  Flow cover: 249
  Flow path: 27
  Inf proof: 5
  Zero half: 8
  Network: 50
  Relax-and-lift: 1

Explored 175890 nodes (4189446 simplex iterations) in 21.70 seconds (29.79 work units)
Thread count was 16 (of 16 available processors)

Solution count 10: 10674 10678 10681 ... 10988

Optimal solution found (tolerance 1.00e-04)
Best objective 1.067400000000e+04, best bound 1.067400000000e+04, gap 0.0000%
